w = 33;
n = 23;
measures = [|7, 33,
|3, 33,
|3, 30,
|3, 24,
|4, 17,
|4, 14,
|3, 17,
|4, 12,
|3, 15,
|3, 14,
|4, 10,
|3, 13,
|3, 10,
|3, 9,
|3, 8,
|4, 6,
|3, 7,
|3, 6,
|4, 4,
|3, 5,
|3, 4,
|4, 3,
|3, 3,
|];
initial_x = [0, 7, 10, 13, 16, 20, 24, 27, 0, 3, 6, 10, 13, 16, 19, 22, 26, 29, 0, 4, 7, 10, 14];
initial_y = [0, 0, 0, 0, 0, 0, 0, 0, 33, 33, 33, 33, 33, 33, 33, 33, 33, 33, 48, 48, 48, 48, 48];